NAME : random_5
COMMENT : 30 random nodes
TYPE : TSP
DIMENSION : 30
EDGE_WEIGHT_TYPE : EUC_2D
NODE_COORD_SECTION
1 193 271
2 128 696
3 145 499
4 157 202
5 731 350
6 46 470
7 944 146
8 926 652
9 125 793
10 671 35
11 104 359
12 293 525
13 800 288
14 936 900
15 671 797
16 45 229
17 779 78
18 856 828
19 937 339
20 551 303
21 155 771
22 974 721
23 88 743
24 372 890
25 678 193
26 260 184
27 451 393
28 485 160
29 345 213
30 22 730
EOF